Route #1: 1 1 50 78 51 20 70 52 46 17 91 92 96 6 73 39 25 55 24 80 77 12 26 53 1 
Route #2: 1 68 81 34 35 71 9 31 62 82 84 60 18 1 
Route #3: 1 66 32 63 88 7 86 42 37 94 89 27 28 69 1 
Route #4: 1 90 64 49 11 8 85 100 14 15 97 59 99 1 
Route #5: 1 76 3 79 54 41 40 58 95 44 5 10 30 1 
Route #6: 1 33 29 21 74 22 57 43 98 13 83 47 36 19 48 1 
Route #7: 1 4 67 23 56 75 72 2 87 38 61 45 1 
Route #8: 1 65 16 93 1 

Cost 1582.47
Time 1.6594


 * Another infos *

 Iterations: 101 Time: 1.6594 sec - 0.0277 min - 0.0005 horas
0.0000 h 0.0277 min
Problem dimension: 101
